1
1000
249
498 1
496 1
495 1
495 1
493 1
490 1
487 1
482 1
481 1
480 1
477 1
476 1
476 1
473 1
471 1
470 1
467 1
467 1
466 1
463 1
461 1
460 1
457 1
454 1
452 1
452 1
448 1
448 1
447 1
446 1
445 1
442 1
441 1
439 1
438 1
437 1
437 1
435 1
434 1
432 1
432 1
431 1
430 1
429 1
425 1
424 1
420 1
419 1
417 1
416 1
414 1
414 1
414 1
412 1
411 1
411 1
409 1
409 1
404 1
403 1
397 1
395 1
394 1
392 1
392 1
390 1
389 1
389 1
385 1
382 1
382 1
382 1
382 1
381 1
381 1
380 1
380 1
379 1
378 1
377 1
376 1
365 1
365 1
362 1
361 1
361 1
360 1
357 1
356 1
354 1
352 1
352 1
351 1
343 1
342 1
341 1
341 1
337 1
336 1
333 1
332 1
331 1
330 1
329 1
328 1
324 1
324 1
321 1
318 1
317 1
317 1
316 1
312 1
311 1
310 1
309 1
308 1
308 1
307 1
304 1
304 1
304 1
303 1
303 1
302 1
301 1
300 1
298 1
298 1
298 1
297 1
296 1
296 1
295 1
294 1
294 1
294 1
294 1
294 1
293 1
293 1
293 1
291 1
290 1
290 1
290 1
288 1
287 1
287 1
287 1
287 1
286 1
285 1
285 1
285 1
284 1
283 1
282 1
281 1
280 1
280 1
279 1
279 1
277 1
277 1
277 1
276 1
276 1
276 1
276 1
275 1
274 1
274 1
273 1
273 1
273 1
273 1
272 1
271 1
271 1
271 1
269 1
269 1
269 1
268 1
267 1
267 1
267 1
267 1
266 1
266 1
266 1
265 1
264 1
264 1
264 1
264 1
263 1
263 1
263 1
263 1
263 1
262 1
261 1
261 1
261 1
261 1
260 1
260 1
259 1
259 1
259 1
258 1
258 1
258 1
258 1
258 1
258 1
257 1
257 1
256 1
256 1
256 1
256 1
255 1
255 1
254 1
254 1
254 1
254 1
254 1
254 1
254 1
253 1
253 1
253 1
253 1
252 1
252 1
252 1
251 1
251 1
251 1
250 1
250 1
250 1
250 1
250 1
250 1
